41
capped anionic CR2 (ACE-CR2-NME), net charge -1
C 19.07500 86.24900 -27.95700
C 18.98800 87.38400 -26.93600
O 18.11200 88.24900 -27.02400
H 19.05400 85.83200 -26.95000
H 18.16600 86.82500 -28.13000
H 19.94300 86.90000 -28.06200
N 19.96900 87.45900 -26.04800
H 20.96400 86.83600 -25.92800
C 19.99600 88.47000 -24.97500
H 18.89100 88.91900 -25.04800
H 19.83100 88.44100 -23.77900
C 21.46400 88.65500 -24.74300
N 22.22800 88.12700 -23.68000
N 22.27700 89.36800 -25.56000
C 23.58100 89.39900 -25.15800
O 24.54300 89.91800 -25.64900
C 23.56700 88.57300 -23.91900
C 21.82900 90.02800 -26.80100
H 20.91400 89.45600 -27.29900
H 22.66800 89.93200 -27.63500
C 21.40200 91.44900 -26.76200
O 21.45900 92.10400 -27.78800
C 24.68500 88.31500 -23.20600
H 25.34100 89.29300 -23.10200
C 24.90800 87.49400 -21.97700
C 23.87300 86.78100 -21.27800
H 22.77000 87.19500 -21.30100
C 26.30100 87.43400 -21.49500
H 27.17500 87.85400 -22.16800
C 24.22600 86.00600 -20.09400
H 23.25800 85.57600 -19.57200
C 26.62700 86.66900 -20.33600
H 27.76100 86.77400 -20.01500
C 25.61600 85.96600 -19.64500
O 25.98300 85.18200 -18.44400
N 20.98800 91.93000 -25.59100
C 20.50200 93.29600 -25.42700
H 21.01100 91.32400 -24.78300
H 20.62300 93.07800 -26.48800
H 19.78400 92.60000 -24.99300
H 21.46200 93.18800 -24.92200
