73
CR2(relaxed)+His148+Tyr203 full, charge -1
N 36.32198695 39.57340649 32.67242592
C 36.50689519 40.57855142 33.69937766
C 37.97342085 40.83508487 33.93311626
N 38.61369744 40.40748155 34.97566533
C 39.97075704 40.68107530 34.76402173
C 40.13109163 41.36357507 33.51010251
O 41.13769936 41.79444499 32.89433816
N 38.83296934 41.43081281 33.00715031
C 38.50202781 42.01877326 31.72617103
C 38.39393573 43.54984056 31.76953549
O 39.22601506 44.27635854 31.21463119
H 39.29984045 41.77001972 31.02218748
H 37.55218504 41.60360231 31.37265654
C 41.02275229 40.18666827 35.52203390
C 41.02727669 39.27951704 36.59335734
C 39.86053265 38.62946605 37.11785555
C 39.92964594 37.81116309 38.20673586
C 41.17715080 37.56100840 38.89977248
C 42.35749139 38.14583656 38.30746073
C 42.27131312 38.97792546 37.23032348
H 43.17530753 39.44744821 36.84440239
H 43.31540312 37.93688545 38.77393481
O 41.21738730 36.87438887 39.95867925
H 39.03740974 37.33618017 38.60522610
H 38.90433251 38.78196626 36.62514817
H 42.00081857 40.54608606 35.19892845
H 36.10473851 40.23401337 34.65766593
H 35.94981294 41.46736735 33.39061739
H 36.72960488 38.66190010 32.85147157
N 44.35200000 37.54100000 43.37500000
H 43.62900000 38.24600000 43.40000000
C 45.50700000 37.79500000 42.50300000
H 46.34500000 37.18800000 42.84500000
C 45.17000000 37.38100000 41.06000000
H 44.34400000 38.00500000 40.71700000
H 46.02700000 37.57800000 40.41600000
C 44.78300000 35.93300000 40.90500000
N 43.50900000 35.42100000 40.82700000
H 42.64900000 35.94600000 40.76100000
C 43.60300000 34.08200000 40.81800000
H 42.75500000 33.41400000 40.77100000
N 44.89100000 33.69000000 40.87700000
C 45.64300000 34.87100000 40.91400000
H 46.71800000 34.94200000 40.98400000
C 45.97300000 39.25900000 42.51000000
O 45.19300000 40.17900000 42.74500000
N 42.94500000 41.93300000 42.79000000
H 43.72900000 41.32500000 42.97900000
C 41.71400000 41.27800000 42.33300000
H 40.90600000 42.00700000 42.27500000
C 41.91000000 40.66600000 40.93700000
H 42.86500000 40.14100000 40.90400000
H 41.13500000 39.91400000 40.78500000
C 41.84100000 41.64500000 39.77800000
C 42.94300000 42.46200000 39.46100000
H 43.83800000 42.41000000 40.06400000
C 42.88000000 43.33200000 38.35400000
H 43.73300000 43.94000000 38.09300000
C 41.71100000 43.39700000 37.56800000
O 41.65400000 44.25000000 36.51100000
H 42.43000000 44.81500000 36.48300000
C 40.60900000 42.58000000 37.88400000
H 39.71900000 42.62300000 37.27300000
C 40.67800000 41.70400000 38.98400000
H 39.84000000 41.06200000 39.21000000
C 41.30300000 40.19200000 43.33500000
O 42.11000000 39.33700000 43.70900000
H 35.80930264 39.71841656 31.81438929
H 37.52761999 43.93547580 32.30701341
H 44.20024968 36.68636635 43.89140408
H 47.01147871 39.42949650 42.22611108
H 43.05638194 42.91952579 42.97563657
H 40.27241428 40.21571983 43.68916160
