31
screen cr2only: charge -1
N 36.32198695 39.57340649 32.67242592
C 36.50689519 40.57855142 33.69937766
C 37.97342085 40.83508487 33.93311626
N 38.61369744 40.40748155 34.97566533
C 39.97075704 40.68107530 34.76402173
C 40.13109163 41.36357507 33.51010251
O 41.13769936 41.79444499 32.89433816
N 38.83296934 41.43081281 33.00715031
C 38.50202781 42.01877326 31.72617103
C 38.39393573 43.54984056 31.76953549
O 39.22601506 44.27635854 31.21463119
H 39.29984045 41.77001972 31.02218748
H 37.55218504 41.60360231 31.37265654
C 41.02275229 40.18666827 35.52203390
C 41.02727669 39.27951704 36.59335734
C 39.86053265 38.62946605 37.11785555
C 39.92964594 37.81116309 38.20673586
C 41.17715080 37.56100840 38.89977248
C 42.35749139 38.14583656 38.30746073
C 42.27131312 38.97792546 37.23032348
H 43.17530753 39.44744821 36.84440239
H 43.31540312 37.93688545 38.77393481
O 41.21738730 36.87438887 39.95867925
H 39.03740974 37.33618017 38.60522610
H 38.90433251 38.78196626 36.62514817
H 42.00081857 40.54608606 35.19892845
H 36.10473851 40.23401337 34.65766593
H 35.94981294 41.46736735 33.39061739
H 36.72960488 38.66190010 32.85147157
H 35.80930264 39.71841656 31.81438929
H 37.52761999 43.93547580 32.30701341
