44
STEOM QM region
N 36.321987 39.573406 32.672426
C 36.506895 40.578552 33.699378
C 37.973421 40.835085 33.933117
N 38.613698 40.407482 34.975666
C 39.970757 40.681075 34.764022
C 40.131092 41.363575 33.510102
O 41.137700 41.794445 32.894338
N 38.832970 41.430813 33.007151
C 38.502028 42.018773 31.726171
C 38.393936 43.549841 31.769535
O 39.226015 44.276359 31.214631
H 39.299841 41.770020 31.022187
H 37.552185 41.603603 31.372657
C 41.022752 40.186668 35.522034
C 41.027277 39.279517 36.593358
C 39.860533 38.629466 37.117856
C 39.929646 37.811163 38.206736
C 41.177151 37.561008 38.899773
C 42.357491 38.145837 38.307461
C 42.271313 38.977925 37.230324
H 43.175308 39.447448 36.844403
H 43.315403 37.936886 38.773935
O 41.217388 36.874389 39.958679
H 39.037410 37.336180 38.605226
H 38.904333 38.781966 36.625149
H 42.000818 40.546086 35.198929
H 36.104739 40.234014 34.657666
H 35.949813 41.467368 33.390617
H 36.729605 38.661900 32.851472
C 41.841000 41.645000 39.778000
C 42.943000 42.462000 39.461000
H 43.838000 42.410000 40.064000
C 42.880000 43.332000 38.354000
H 43.733000 43.940000 38.093000
C 41.711000 43.397000 37.568000
O 41.654000 44.250000 36.511000
H 42.430000 44.815000 36.483000
C 40.609000 42.580000 37.884000
H 39.719000 42.623000 37.273000
C 40.678000 41.704000 38.984000
H 39.840000 41.062000 39.210000
H 35.809303 39.718417 31.814389
H 37.527620 43.935476 32.307014
H 41.890523 40.942358 40.609831
