44
Coordinates from ORCA-job steom_phenol_svpd.s1
  N          36.32198695000000     39.57340649000000     32.67242592000000
  C          36.50689519000000     40.57855142000000     33.69937766000000
  C          37.97342085000000     40.83508486999999     33.93311626000000
  N          38.61369744000000     40.40748155000000     34.97566533000000
  C          39.97075704000000     40.68107530000000     34.76402173000000
  C          40.13109162999999     41.36357507000000     33.51010251000000
  O          41.13769936000000     41.79444499000000     32.89433816000000
  N          38.83296933999998     41.43081280999998     33.00715031000000
  C          38.50202780999999     42.01877326000000     31.72617102999999
  C          38.39393573000000     43.54984056000000     31.76953548999999
  O          39.22601506000000     44.27635853999998     31.21463119000000
  H          39.29984045000000     41.77001972000000     31.02218748000000
  H          37.55218504000000     41.60360230999999     31.37265653999999
  C          41.02275229000000     40.18666827000000     35.52203390000000
  C          41.02727669000000     39.27951703999999     36.59335734000000
  C          39.86053264999999     38.62946604999998     37.11785555000000
  C          39.92964593999999     37.81116309000000     38.20673586000000
  C          41.17715080000000     37.56100839999998     38.89977248000000
  C          42.35749139000000     38.14583655999999     38.30746072999999
  C          42.27131312000000     38.97792546000000     37.23032348000000
  H          43.17530752999998     39.44744821000000     36.84440239000000
  H          43.31540312000000     37.93688545000000     38.77393481000000
  O          41.21738730000000     36.87438887000000     39.95867925000000
  H          39.03740974000000     37.33618017000000     38.60522610000000
  H          38.90433250999999     38.78196626000000     36.62514816999999
  H          42.00081856999999     40.54608605999999     35.19892845000000
  H          36.10473851000000     40.23401336999999     34.65766593000000
  H          35.94981294000000     41.46736734999999     33.39061739000000
  H          36.72960488000000     38.66190010000000     32.85147157000000
  C          41.84100000000000     41.64499999999999     39.77799999999998
  C          42.94300000000000     42.46200000000000     39.46099999999998
  H          43.83800000000000     42.41000000000000     40.06400000000000
  C          42.88000000000000     43.33200000000000     38.35400000000000
  H          43.73300000000000     43.94000000000000     38.09299999999999
  C          41.71100000000000     43.39700000000000     37.56799999999998
  O          41.65400000000000     44.25000000000000     36.51100000000000
  H          42.43000000000000     44.81500000000000     36.48300000000000
  C          40.60899999999999     42.57999999999998     37.88400000000000
  H          39.71899999999999     42.62300000000000     37.27300000000000
  C          40.67800000000000     41.70400000000000     38.98400000000000
  H          39.84000000000000     41.06200000000000     39.20999999999999
  H          35.80930263999998     39.71841656000000     31.81438929000000
  H          37.52761999000000     43.93547579999998     32.30701341000000
  H          41.89052226000000     40.94235807000000     40.60983043000000
