28
HBDI-truncated from the neutral CR2 model: -CH2CHO tail -> CH3, -NH2 -> H
C     36.44223600    40.35178100    34.03974000
C     37.91941700    40.65222700    34.20198300
N     38.58530800    40.37102500    35.24413300
C     39.92655100    40.68708400    35.03294900
C     40.02936300    41.24102900    33.74065800
O     40.99328900    41.63509200    33.05804800
N     38.73722700    41.20891600    33.21472000
C     38.51149900    41.78145900    31.90102900
H     39.36070000    41.56063100    31.24236900
H     37.58004300    41.36690200    31.48767300
C     41.05158600    40.22270400    35.75482500
C     41.17008700    39.27740600    36.76643200
C     40.08832800    38.47249400    37.25142900
C     40.22446900    37.64583800    38.35016200
C     41.46341800    37.55363400    39.06601200
C     42.57574100    38.21742200    38.49345300
C     42.42158200    39.05711000    37.41281600
H     43.28522900    39.58087100    37.05375300
H     43.53676200    38.07775600    38.93262700
O     41.55091400    36.89616500    40.19774900
H     39.35828200    37.07146300    38.67606700
H     39.14235700    38.51137700    36.69456700
H     41.97897800    40.64197900    35.38690000
H     36.08747100    40.11847500    35.04389700
H     35.85048700    41.17944500    33.69390800
H     42.46703600    36.85060200    40.48102500
H     38.41257357    42.86584664    31.85186397
H     36.30715379    39.55347901    33.30996830
