32
Neutral (protonated A-form) CR2 chromophore, gas-phase, charge 0 (closed-shell)
N  36.266348 39.312327 33.089518
C  36.442236 40.351781 34.039740
C  37.919417 40.652227 34.201983
N  38.585308 40.371025 35.244133
C  39.926551 40.687084 35.032949
C  40.029363 41.241029 33.740658
O  40.993289 41.635092 33.058048
N  38.737227 41.208916 33.214720
C  38.511499 41.781459 31.901029
C  38.368436 43.349668 31.829928
O  39.034304 44.054931 31.081795
H  39.360700 41.560631 31.242369
H  37.580043 41.366902 31.487673
C  41.051586 40.222704 35.754825
C  41.170087 39.277406 36.766432
C  40.088328 38.472494 37.251429
C  40.224469 37.645838 38.350162
C  41.463418 37.553634 39.066012
C  42.575741 38.217422 38.493453
C  42.421582 39.057110 37.412816
H  43.285229 39.580871 37.053753
H  43.536762 38.077756 38.932627
O  41.550914 36.896165 40.197749
H  39.358282 37.071463 38.676067
H  39.142357 38.511377 36.694567
H  41.978978 40.641979 35.386900
H  36.087471 40.118475 35.043897
H  35.850487 41.179445 33.693908
H  36.579142 38.378892 33.300976
H  36.006814 39.548633 32.099922
H  37.604383 43.728521 32.442459
H  42.467036 36.850602 40.481025
