21
phenolate(CR2)+His148 imidazole; bridging HD1 quantum; QM/MM relaxed geom
C 41.170087 39.277406 36.766432
C 40.088328 38.472494 37.251429
C 40.224469 37.645838 38.350162
C 41.463418 37.553634 39.066012
C 42.575741 38.217422 38.493453
C 42.421582 39.057110 37.412816
O 41.550914 36.896165 40.197749
H 39.142357 38.511377 36.694567
H 39.358282 37.071463 38.676067
H 43.536762 38.077756 38.932627
H 43.285229 39.580871 37.053753
H 41.077135 40.018898 35.972928
C 44.882741 35.891674 41.446336
N 43.605699 35.380360 41.355525
C 43.634160 34.058429 41.715787
N 44.884369 33.671915 41.994122
C 45.650351 34.789568 41.775896
H 42.745988 35.896030 41.003499
H 42.693341 33.481390 41.823577
H 46.718413 34.732761 41.840935
H 45.079640 36.951715 41.286199
