31
QM=['CR2:66'] (MM-min geom) charge=-1
N 36.32000000 39.62000000 32.66000000
C 36.57400000 40.65400000 33.65300000
C 38.05900000 40.82200000 33.87000000
N 38.69200000 40.31100000 34.93100000
C 40.01000000 40.64100000 34.70100000
C 40.19800000 41.42900000 33.49100000
O 41.22600000 41.87300000 32.99000000
N 38.91200000 41.47900000 32.99700000
C 38.54700000 42.07100000 31.70200000
C 38.40600000 43.56400000 31.79200000
O 39.24500000 44.29200000 31.27000000
H 39.34200000 41.85800000 30.98700000
H 37.61800000 41.64900000 31.31800000
C 41.05200000 40.19900000 35.50600000
C 40.98000000 39.27300000 36.62600000
C 39.78600000 38.59800000 37.10000000
C 39.88800000 37.77800000 38.20400000
C 41.12900000 37.54400000 38.91800000
C 42.30300000 38.18200000 38.34000000
C 42.25600000 39.03000000 37.25600000
H 43.15700000 39.51600000 36.90000000
H 43.23300000 37.97000000 38.85600000
O 41.18000000 36.85800000 39.92600000
H 39.02600000 37.26400000 38.61300000
H 38.81600000 38.69400000 36.62600000
H 42.03800000 40.56900000 35.24900000
H 36.10700000 40.36200000 34.59300000
H 36.14900000 41.60700000 33.33900000
H 36.70800000 38.71000000 32.86500000
H 35.80210623 39.73173218 31.80011515
H 37.52577457 43.93983579 32.31358475
